32      4       
11      19      15      13      
0       0       0       0       0       3       2       3       4       
8       5       0       0       13      4       5       7       9       10      
6       4       0       0       5       2       5       9       
9       0       1       9       0       2       5       9       
8       11      0       14      0       1       6       
9       0       13      0       2       1       8       
2       1       6       0       0       1       8       
4       1       19      0       0       2       11      18      
5       0       11      0       13      2       11      18      
9       0       19      0       5       2       11      18      
10      2       0       4       0       3       12      17      20      
8       0       10      0       8       2       13      14      
9       0       15      15      0       2       15      19      
8       9       0       0       4       2       16      19      
6       7       0       5       0       1       16      
6       7       0       2       0       2       21      22      
10      2       0       0       7       2       23      25      
2       11      0       0       8       1       19      
7       0       0       1       9       2       24      25      
8       8       0       0       9       2       24      25      
2       2       0       10      0       1       23      
1       0       2       1       0       2       25      26      
2       0       0       13      8       1       24      
6       0       11      5       0       3       26      27      31      
9       11      0       15      0       3       27      28      31      
6       0       1       0       1       2       28      30      
6       0       0       6       1       2       29      30      
3       0       9       0       5       1       29      
8       2       2       0       0       1       32      
9       0       19      12      0       1       32      
1       0       5       1       0       1       32      
0       0       0       0       0       0       
